Problem:    
Rows:       237
Columns:    89 (72 integer, 72 binary)
Non-zeros:  741
Status:     INTEGER OPTIMAL
Objective:  value = 73.190411 (MINimum)

   No.   Row name        Activity     Lower bound   Upper bound
------ ------------    ------------- ------------- -------------
     1 r.5                         1             1             = 
     2 r.6                   1073.19             0               
     3 r.7                   -926.81      -989.832               
     4 r.8                   73.1904             0               
     5 r.9                   73.1904      -991.965               
     6 r.10                  1073.19             0               
     7 r.11                 -994.227      -995.138               
     8 r.12                  73.1904             0               
     9 r.13                  63.0219      -995.821               
    10 r.14                  73.1904             0               
    11 r.15                 -923.878      -985.988               
    12 r.16                  1073.19             0               
    13 r.17                  -926.81       -988.92               
    14 r.18                  73.1904             0               
    15 r.19                    62.11      -974.745               
    16 r.20                  1073.19             0               
    17 r.21                  -937.89      -977.417               
    18 r.22                  73.1904             0               
    19 r.23                   39.527      -967.199               
    20 r.24                  1073.19             0               
    21 r.25                 -960.473      -971.405               
    22 r.26                  73.1904             0               
    23 r.27                  10.9325      -986.878               
    24 r.28                  1073.19             0               
    25 r.29                 -989.067       -989.37               
    26 r.30                  1073.19             0               
    27 r.31                 -999.089      -999.391               
    28 r.32                  73.1904             0               
    29 r.33                  73.1904      -997.984               
    30 r.34                  1073.19             0               
    31 r.35                 -999.698      -999.698               
    32 r.36                  73.1904             0               
    33 r.37                 0.302111      -998.498               
    34 r.38                        1             1             = 
    35 r.39                        1             1             = 
    36 r.40                        1             1             = 
    37 r.41                        1             1             = 
    38 r.42                        1             1             = 
    39 r.43                        1             1             = 
    40 r.44                        1             1             = 
    41 r.45                        1             1             = 
    42 r.46                 -932.582      -989.832               
    43 r.47                  67.4175      -991.965               
    44 r.48                 -989.832      -989.832               
    45 r.49                  10.1685      -991.965               
    46 r.50                     1001             2               
    47 r.51                    -1001         -1001               
    48 r.52                  1002.93      -985.988               
    49 r.53                     1001             2               
    50 r.54                    -1001         -1001               
    51 r.55                     2000       -988.92               
    52 r.56                     1001             2               
    53 r.57                    -1001         -1001               
    54 r.58                  1988.92      -974.745               
    55 r.59                     1001             2               
    56 r.60                    -1001         -1001               
    57 r.61                  1988.92      -977.417               
    58 r.62                     1001             2               
    59 r.63                    -1001         -1001               
    60 r.64                  1966.34      -967.199               
    61 r.65                     1001             2               
    62 r.66                    -1001         -1001               
    63 r.67                  1966.34      -971.405               
    64 r.68                     1001             2               
    65 r.69                    -1001         -1001               
    66 r.70                  1937.74      -986.878               
    67 r.71                     1001             2               
    68 r.72                    -1001         -1001               
    69 r.73                  1937.74       -989.37               
    70 r.74                        2             2               
    71 r.75                       -2         -1001               
    72 r.76                 -72.2794      -999.391               
    73 r.77                     1000             2               
    74 r.78                    -1000         -1001               
    75 r.79                     2000      -997.984               
    76 r.80                     1001             2               
    77 r.81                    -1001         -1001               
    78 r.82                  1070.35      -985.988               
    79 r.83                     1001             2               
    80 r.84                    -1001         -1001               
    81 r.85                  2010.17       -988.92               
    82 r.86                     1001             2               
    83 r.87                    -1001         -1001               
    84 r.88                  2056.34      -974.745               
    85 r.89                     1001             2               
    86 r.90                    -1001         -1001               
    87 r.91                  1999.09      -977.417               
    88 r.92                     1001             2               
    89 r.93                    -1001         -1001               
    90 r.94                  2033.75      -967.199               
    91 r.95                     1001             2               
    92 r.96                    -1001         -1001               
    93 r.97                  1976.51      -971.405               
    94 r.98                     1001             2               
    95 r.99                    -1001         -1001               
    96 r.100                 2005.16      -986.878               
    97 r.101                    1001             2               
    98 r.102                   -1001         -1001               
    99 r.103                 1947.91       -989.37               
   100 r.104                       2             2               
   101 r.105                      -2         -1001               
   102 r.106                 -4.8619      -999.391               
   103 r.107                    1000             2               
   104 r.108                   -1000         -1001               
   105 r.109                 2010.17      -997.984               
   106 r.110                -994.529      -995.138               
   107 r.111                 62.7198      -995.821               
   108 r.112                -994.529      -995.138               
   109 r.113                 62.7198      -995.821               
   110 r.114                    1001             2               
   111 r.115                   -1001         -1001               
   112 r.116                 2997.07       10.1685               
   113 r.117                    1001             2               
   114 r.118                   -1001         -1001               
   115 r.119                    2000        8.0353               
   116 r.120                    1001             2               
   117 r.121                   -1001         -1001               
   118 r.122                 2929.65        4.8619               
   119 r.123                    1001             2               
   120 r.124                   -1001         -1001               
   121 r.125                 1989.83        4.1795               
   122 r.126                -985.988      -985.988               
   123 r.127                 -988.92       -988.92               
   124 r.128                -985.988      -985.988               
   125 r.129                 -988.92       -988.92               
   126 r.130                    1001             2               
   127 r.131                   -1001         -1001               
   128 r.132                 2924.79      -999.391               
   129 r.133                    1001             2               
   130 r.134                   -1001         -1001               
   131 r.135                    2000      -997.984               
   132 r.136                    1001             2               
   133 r.137                   -1001         -1001               
   134 r.138                 2011.08       10.1685               
   135 r.139                    1001             2               
   136 r.140                   -1001         -1001               
   137 r.141                 2011.08        8.0353               
   138 r.142                    1001             2               
   139 r.143                   -1001         -1001               
   140 r.144                 1943.66        4.8619               
   141 r.145                    1001             2               
   142 r.146                   -1001         -1001               
   143 r.147                 2000.91        4.1795               
   144 r.148                  22.583      -974.745               
   145 r.149                -977.417      -977.417               
   146 r.150                  22.583      -974.745               
   147 r.151                -977.417      -977.417               
   148 r.152                    1001             2               
   149 r.153                   -1001         -1001               
   150 r.154                  1938.8      -999.391               
   151 r.155                    1001             2               
   152 r.156                   -1001         -1001               
   153 r.157                 2011.08      -997.984               
   154 r.158                    1001             2               
   155 r.159                   -1001         -1001               
   156 r.160                 2033.66       10.1685               
   157 r.161                    1001             2               
   158 r.162                   -1001         -1001               
   159 r.163                 2033.66        8.0353               
   160 r.164                    1001             2               
   161 r.165                   -1001         -1001               
   162 r.166                 1966.25        4.8619               
   163 r.167                    1001             2               
   164 r.168                   -1001         -1001               
   165 r.169                 2023.49        4.1795               
   166 r.170                 28.5945      -967.199               
   167 r.171                -971.405      -971.405               
   168 r.172                 28.5945      -967.199               
   169 r.173                -971.405      -971.405               
   170 r.174                    1001             2               
   171 r.175                   -1001         -1001               
   172 r.176                 1961.38      -999.391               
   173 r.177                    1001             2               
   174 r.178                   -1001         -1001               
   175 r.179                 2033.66      -997.984               
   176 r.180                    1001             2               
   177 r.181                   -1001         -1001               
   178 r.182                 2062.26       10.1685               
   179 r.183                    1001             2               
   180 r.184                   -1001         -1001               
   181 r.185                 2062.26        8.0353               
   182 r.186                    1001             2               
   183 r.187                   -1001         -1001               
   184 r.188                 1994.84        4.8619               
   185 r.189                    1001             2               
   186 r.190                   -1001         -1001               
   187 r.191                 2052.09        4.1795               
   188 r.192                    1001             2               
   189 r.193                   -1001         -1001               
   190 r.194                 1989.98      -999.391               
   191 r.195                    1001             2               
   192 r.196                   -1001         -1001               
   193 r.197                 2062.26      -997.984               
   194 r.198                 10.6304      -986.878               
   195 r.199                 -989.37       -989.37               
   196 r.200                 10.6304      -986.878               
   197 r.201                 -989.37       -989.37               
   198 r.202                       2             2               
   199 r.203                      -2         -1001               
   200 r.204                 72.2794       10.1685               
   201 r.205                    1000             2               
   202 r.206                   -1000         -1001               
   203 r.207                    2000        8.0353               
   204 r.208                       2             2               
   205 r.209                      -2         -1001               
   206 r.210                  4.8619        4.8619               
   207 r.211                    1000             2               
   208 r.212                   -1000         -1001               
   209 r.213                 1989.83        4.1795               
   210 r.214                    1001             2               
   211 r.215                   -1001         -1001               
   212 r.216                 1075.21       14.0118               
   213 r.217                    1001             2               
   214 r.218                   -1001         -1001               
   215 r.219                    2000       11.0804               
   216 r.220                    1001             2               
   217 r.221                   -1001         -1001               
   218 r.222                  2061.2       25.2549               
   219 r.223                    1001             2               
   220 r.224                   -1001         -1001               
   221 r.225                 1988.92        22.583               
   222 r.226                    1001             2               
   223 r.227                   -1001         -1001               
   224 r.228                 2038.62       32.8005               
   225 r.229                    1001             2               
   226 r.230                   -1001         -1001               
   227 r.231                 1966.34       28.5945               
   228 r.232                    1001             2               
   229 r.233                   -1001         -1001               
   230 r.234                 2010.02       13.1217               
   231 r.235                    1001             2               
   232 r.236                   -1001         -1001               
   233 r.237                 1937.74       10.6304               
   234 r.238                -999.391      -999.391               
   235 r.239                 72.8883      -997.984               
   236 r.240                -999.391      -999.391               
   237 r.241                 72.8883      -997.984               

   No. Column name       Activity     Lower bound   Upper bound
------ ------------    ------------- ------------- -------------
     1 tt                    73.1904             0               
     2 s_1_8        *              1             0             1 
     3 s_1_1        *              1             0             1 
     4 t_1_1                       0             0               
     5 s_2_1        *              0             0             1 
     6 t_2_1                       0             0               
     7 s_1_2        *              1             0             1 
     8 t_1_2                 67.4175             0               
     9 s_2_2        *              0             0             1 
    10 t_2_2                 10.1685             0               
    11 s_1_3        *              0             0             1 
    12 t_1_3                 997.069             0               
    13 s_2_3        *              1             0             1 
    14 t_2_3                       0             0               
    15 s_1_4        *              0             0             1 
    16 t_1_4                 11.0804             0               
    17 s_2_4        *              1             0             1 
    18 t_2_4                 11.0804             0               
    19 s_1_5        *              0             0             1 
    20 t_1_5                 33.6634             0               
    21 s_2_5        *              1             0             1 
    22 t_2_5                 33.6634             0               
    23 s_1_6        *              0             0             1 
    24 t_1_6                 62.2579             0               
    25 s_2_6        *              1             0             1 
    26 t_2_6                 62.2579             0               
    27 s_1_7        *              1             0             1 
    28 t_1_7                 72.2794             0               
    29 s_2_7        *              0             0             1 
    30 t_2_7                       0             0               
    31 t_1_8                 72.8883             0               
    32 s_2_8        *              0             0             1 
    33 t_2_8                 72.8883             0               
    34 r_1_1_3      *              1             0             1 
    35 u_1_1_3      *              0             0             1 
    36 r_2_1_3      *              1             0             1 
    37 u_2_1_3      *              0             0             1 
    38 r_1_1_4      *              1             0             1 
    39 u_1_1_4      *              0             0             1 
    40 r_2_1_4      *              1             0             1 
    41 u_2_1_4      *              0             0             1 
    42 r_1_1_5      *              1             0             1 
    43 u_1_1_5      *              0             0             1 
    44 r_2_1_5      *              1             0             1 
    45 u_2_1_5      *              0             0             1 
    46 r_1_1_6      *              1             0             1 
    47 u_1_1_6      *              0             0             1 
    48 r_2_1_6      *              1             0             1 
    49 u_2_1_6      *              0             0             1 
    50 r_1_1_7      *              0             0             1 
    51 u_1_1_7      *              0             0             1 
    52 r_2_1_7      *              1             0             1 
    53 u_2_1_7      *              0             0             1 
    54 r_1_2_3      *              1             0             1 
    55 u_1_2_3      *              0             0             1 
    56 r_2_2_3      *              1             0             1 
    57 u_2_2_3      *              0             0             1 
    58 r_1_2_4      *              1             0             1 
    59 u_1_2_4      *              0             0             1 
    60 r_2_2_4      *              1             0             1 
    61 u_2_2_4      *              0             0             1 
    62 r_1_2_5      *              1             0             1 
    63 u_1_2_5      *              0             0             1 
    64 r_2_2_5      *              1             0             1 
    65 u_2_2_5      *              0             0             1 
    66 r_1_2_6      *              1             0             1 
    67 u_1_2_6      *              0             0             1 
    68 r_2_2_6      *              1             0             1 
    69 u_2_2_6      *              0             0             1 
    70 r_1_2_7      *              0             0             1 
    71 u_1_2_7      *              0             0             1 
    72 r_2_2_7      *              1             0             1 
    73 u_2_2_7      *              0             0             1 
    74 r_1_3_7      *              1             0             1 
    75 u_1_3_7      *              0             0             1 
    76 r_2_3_7      *              1             0             1 
    77 u_2_3_7      *              0             0             1 
    78 r_1_4_7      *              1             0             1 
    79 u_1_4_7      *              0             0             1 
    80 r_2_4_7      *              1             0             1 
    81 u_2_4_7      *              0             0             1 
    82 r_1_5_7      *              1             0             1 
    83 u_1_5_7      *              0             0             1 
    84 r_2_5_7      *              1             0             1 
    85 u_2_5_7      *              0             0             1 
    86 r_1_6_7      *              1             0             1 
    87 u_1_6_7      *              0             0             1 
    88 r_2_6_7      *              1             0             1 
    89 u_2_6_7      *              0             0             1 

Integer feasibility conditions:

KKT.PE: max.abs.err = 4.55e-13 on row 84
        max.rel.err = 1.10e-16 on row 187
        High quality

KKT.PB: max.abs.err = 8.88e-15 on row 206
        max.rel.err = 1.52e-15 on row 206
        High quality

End of output
